Solver command line: ['C:\\Users\\jose.velasco\\Anaconda3\\Library\\bin\\glpsol.exe', '--write', 'C:\\Users\\JOSE~1.VEL\\AppData\\Local\\Temp\\tmpy8hcupij.glpk.raw', '--wglp', 'C:\\Users\\JOSE~1.VEL\\AppData\\Local\\Temp\\tmpgqs7qxcd.glpk.glp', '--cpxlp', 'C:\\Users\\JOSE~1.VEL\\AppData\\Local\\Temp\\tmps2_gsclx.pyomo.lp']

GLPSOL: GLPK LP/MIP Solver, v4.65
Parameter(s) specified in the command line:
 --write C:\Users\JOSE~1.VEL\AppData\Local\Temp\tmpy8hcupij.glpk.raw --wglp
 C:\Users\JOSE~1.VEL\AppData\Local\Temp\tmpgqs7qxcd.glpk.glp --cpxlp C:\Users\JOSE~1.VEL\AppData\Local\Temp\tmps2_gsclx.pyomo.lp
Reading problem data from 'C:\Users\JOSE~1.VEL\AppData\Local\Temp\tmps2_gsclx.pyomo.lp'...
4 rows, 3 columns, 6 non-zeros
30 lines were read
Writing problem data to 'C:\Users\JOSE~1.VEL\AppData\Local\Temp\tmpgqs7qxcd.glpk.glp'...
22 lines were written
GLPK Simplex Optimizer, v4.65
4 rows, 3 columns, 6 non-zeros
Preprocessing...
2 rows, 2 columns, 4 non-zeros
Scaling...
 A: min|aij| =  1.000e+00  max|aij| =  2.000e+00  ratio =  2.000e+00
Problem data seem to be well scaled
Constructing initial basis...
Size of triangular part is 2
*     0: obj =  -0.000000000e+00 inf =   0.000e+00 (2)
*     3: obj =   2.600000000e+03 inf =   0.000e+00 (0)
OPTIMAL LP SOLUTION FOUND
Time used:   0.0 secs
Memory used: 0.0 Mb (40412 bytes)
Writing basic solution to 'C:\Users\JOSE~1.VEL\AppData\Local\Temp\tmpy8hcupij.glpk.raw'...
16 lines were written

